(set-logic QF_S)
(declare-fun var0 () String)
(declare-fun var1 () String)
(declare-fun var2 () String)
(declare-fun var3 () String)
(declare-fun var4 () Int)
(declare-fun var5 () Int)
(declare-fun var6 () Int)
(declare-fun var7 () Bool)
(assert (str.contains (str.replace var0 var1 var2) (str.substr var3 1 var4)))
(assert (< (str.len var0) (str.indexof (str.from.int var5) (str.replace var2 var1 var2) (str.indexof var0 var2 98))))
(assert (< (str.len var2) (str.indexof var1 var3 var6)))
(assert (not var7))
(check-sat)